c This is QMaxSAT 2017 based on 14.07
c This is Glucose 3.0
c This is MiniSat 2.2.0
c WARNING: for repeatability, setting FPU to use double precision
c card = mrwto, comp = 0, pmodel = 0, narr = 9, mct = 52, verb = 0
cr firstCPXsol 0 0 0
c top = 1525567
c |  Number of variables:    154386                                           |
c |  Number of clauses:      170404737                                        |
c |  Weight of hard clauses: 1525567                                          |
c |  Number of soft clauses: 23868                                            |
c |  Number of unit soft clauses: 23868                                       |
c |  Maximum Cardinality (by unit): 13730094     (13730094    )               |
c last restart ## conflicts  :  21 13476 
o 18864 | cpuTime 16.0426 s
c Sum of weights = 1525566
c A number of soft clauses remained = 2652
c MRWTO encoding for Pseudo-Boolean Constraints
c sizeMax=18864
c No.0 Divisor=12	generated by pow1
c No.1 Divisor=12	generated by pow1
c No.2 Divisor=12	generated by pow1
c No.3 Divisor=12	generated by pow1
c p0= 12	p1= 12	p2= 12	p3= 12	
c number of digits = 5
c linkingVar[0].size = 12, linkingVar[1].size = 12, linkingVar[2].size = 12, linkingVar[3].size = 11, linkingVar[4].size = 1, 
c Pseudo-Boolean Constraints: 80266 variables and 841008 clauses
c Sum of weights = 1525566
c A number of soft clauses remained = 2652
c MRWTO encoding for Pseudo-Boolean Constraints
c sizeMax=18864
c No.0 Divisor=12	generated by pow1
c No.1 Divisor=12	generated by pow1
c No.2 Divisor=12	generated by pow1
c No.3 Divisor=12	generated by pow1
c p0= 12	p1= 12	p2= 12	p3= 12	
c number of digits = 5
c linkingVar[0].size = 12, linkingVar[1].size = 12, linkingVar[2].size = 12, linkingVar[3].size = 11, linkingVar[4].size = 1, 
c Pseudo-Boolean Constraints: 80266 variables and 841008 clauses
c Sum of weights = 1525566
c A number of soft clauses remained = 2652
c MRWTO encoding for Pseudo-Boolean Constraints
c sizeMax=18864
c No.0 Divisor=12	generated by pow1
c No.1 Divisor=12	generated by pow1
c No.2 Divisor=12	generated by pow1
c No.3 Divisor=12	generated by pow1
c p0= 12	p1= 12	p2= 12	p3= 12	
c number of digits = 5
c linkingVar[0].size = 12, linkingVar[1].size = 12, linkingVar[2].size = 12, linkingVar[3].size = 11, linkingVar[4].size = 1, 
c Pseudo-Boolean Constraints: 80266 variables and 841008 clauses
c Sum of weights = 1525566
c A number of soft clauses remained = 2652
c MRWTO encoding for Pseudo-Boolean Constraints
c sizeMax=18864
c No.0 Divisor=12	generated by pow1
c No.1 Divisor=12	generated by pow1
c No.2 Divisor=12	generated by pow1
c No.3 Divisor=12	generated by pow1
c p0= 12	p1= 12	p2= 12	p3= 12	
c number of digits = 5
c linkingVar[0].size = 12, linkingVar[1].size = 12, linkingVar[2].size = 12, linkingVar[3].size = 11, linkingVar[4].size = 1, 
c Pseudo-Boolean Constraints: 80266 variables and 841008 clauses
c Sum of weights = 1525566
c A number of soft clauses remained = 2652
c MRWTO encoding for Pseudo-Boolean Constraints
c sizeMax=18864
c No.0 Divisor=12	generated by pow1
c No.1 Divisor=12	generated by pow1
c No.2 Divisor=12	generated by pow1
c No.3 Divisor=12	generated by pow1
c p0= 12	p1= 12	p2= 12	p3= 12	
c number of digits = 5
c linkingVar[0].size = 12, linkingVar[1].size = 12, linkingVar[2].size = 12, linkingVar[3].size = 11, linkingVar[4].size = 1, 
c Pseudo-Boolean Constraints: 80266 variables and 841008 clauses
c Sum of weights = 1525566
c A number of soft clauses remained = 2652
c MRWTO encoding for Pseudo-Boolean Constraints
c sizeMax=18864
c No.0 Divisor=12	generated by pow1
c No.1 Divisor=12	generated by pow1
c No.2 Divisor=12	generated by pow1
c No.3 Divisor=12	generated by pow1
c p0= 12	p1= 12	p2= 12	p3= 12	
c number of digits = 5
c linkingVar[0].size = 12, linkingVar[1].size = 12, linkingVar[2].size = 12, linkingVar[3].size = 11, linkingVar[4].size = 1, 
c Pseudo-Boolean Constraints: 80266 variables and 841008 clauses
c Sum of weights = 1525566
c A number of soft clauses remained = 2652
c MRWTO encoding for Pseudo-Boolean Constraints
c sizeMax=18864
c No.0 Divisor=12	generated by pow1
c No.1 Divisor=12	generated by pow1
c No.2 Divisor=12	generated by pow1
c No.3 Divisor=12	generated by pow1
c p0= 12	p1= 12	p2= 12	p3= 12	
c number of digits = 5
c linkingVar[0].size = 12, linkingVar[1].size = 12, linkingVar[2].size = 12, linkingVar[3].size = 11, linkingVar[4].size = 1, 
c Pseudo-Boolean Constraints: 80266 variables and 841008 clauses
c Sum of weights = 1525566
c A number of soft clauses remained = 2652
c MRWTO encoding for Pseudo-Boolean Constraints
c sizeMax=18864
c No.0 Divisor=12	generated by pow1
c No.1 Divisor=12	generated by pow1
c No.2 Divisor=12	generated by pow1
c No.3 Divisor=12	generated by pow1
c p0= 12	p1= 12	p2= 12	p3= 12	
c number of digits = 5
c linkingVar[0].size = 12, linkingVar[1].size = 12, linkingVar[2].size = 12, linkingVar[3].size = 11, linkingVar[4].size = 1, 
c Pseudo-Boolean Constraints: 80266 variables and 841008 clauses
c Sum of weights = 1525566
c A number of soft clauses remained = 2652
c MRWTO encoding for Pseudo-Boolean Constraints
c sizeMax=18864
c No.0 Divisor=12	generated by pow1
c No.1 Divisor=12	generated by pow1
c No.2 Divisor=12	generated by pow1
c No.3 Divisor=12	generated by pow1
c p0= 12	p1= 12	p2= 12	p3= 12	
c number of digits = 5
c linkingVar[0].size = 12, linkingVar[1].size = 12, linkingVar[2].size = 12, linkingVar[3].size = 11, linkingVar[4].size = 1, 
c Pseudo-Boolean Constraints: 80266 variables and 841008 clauses
s UNKNOWN
c Search is stopped by a limit (maybe time-limit)
cr positiVarArr: [ | 31@1(1->31) | 227@1(5->19) | 452@1(9->36) | 477@1(10->9) | 904@1(18->20) | 946@1(19->10) | 989@1(20->1) | 1600@1(31->40) | 1838@1(36->18) | 2033@1(40->5) | 2731@2(1->27) | 3770@2(21->26) | 3797@2(22->1) | 3872@2(23->24) | 3922@2(24->22) | 3975@2(25->23) | 4029@2(26->25) | 4077@2(27->21) | 5457@3(1->49) | 7905@3(49->1) | 8114@4(1->2) | 8165@4(2->1) | 10866@5(1->50) | 13365@5(50->1) | 13568@6(1->48) | 13827@6(6->47) | 13878@6(7->46) | 13929@6(8->45) | 14084@6(11->44) | 14135@6(12->43) | 14186@6(13->42) | 14237@6(14->41) | 14287@6(15->39) | 14338@6(16->38) | 14389@6(17->37) | 14959@6(28->35) | 15010@6(29->34) | 15061@6(30->33) | 15140@6(32->8) | 15213@6(33->29) | 15264@6(34->28) | 15305@6(35->17) | 15408@6(37->16) | 15459@6(38->15) | 15510@6(39->14) | 15613@6(41->13) | 15658@6(42->6) | 15715@6(43->11) | 15786@6(44->30) | 15815@6(45->7) | 15861@6(46->1) | 15944@6(47->32) | 15976@6(48->12) | 16228@7(1->4) | 16329@7(3->1) | 16383@7(4->3) | 18980@8(1->52) | 21581@8(52->1) | 21683@9(1->51) | 24233@9(51->1) | ]
cr the 1-th chain: [ 1->31->40->5->19->10->9->36->18->20->1 ] (#non-depot=9) {#cumul.=10}
cr the 2-th chain: [ 1->27->21->26->25->23->24->22->1 ] (#non-depot=7) {#cumul.=17}
cr the 3-th chain: [ 1->49->1 ] (#non-depot=1) {#cumul.=18}
cr the 4-th chain: [ 1->2->1 ] (#non-depot=1) {#cumul.=19}
cr the 5-th chain: [ 1->50->1 ] (#non-depot=1) {#cumul.=20}
cr the 6-th chain: [ 1->48->12->43->11->44->30->33->29->34->28->35->17->37->16->38->15->39->14->41->13->42->6->47->32->8->45->7->46->1 ] (#non-depot=28) {#cumul.=48}
cr the 7-th chain: [ 1->4->3->1 ] (#non-depot=2) {#cumul.=50}
cr the 8-th chain: [ 1->52->1 ] (#non-depot=1) {#cumul.=51}
cr the 9-th chain: [ 1->51->1 ] (#non-depot=1) {#cumul.=52}
c Latest Answer = 0 by 1 loops
c restarts              : 20891
c conflicts             : 5416631        (1431 /sec)
c decisions             : 122478203      (0.00 % random) (32350 /sec)
c propagations          : 9115867843     (2407760 /sec)
c conflict literals     : 5105607685     (2.43 % deleted)
c Memory used           : 14511.00 MB
c CPU time              : 3786.04 s
